20170705 430 0 0 0
20160608 450 0 0 0
20150707 200 2000 0 0
20140424 220 5000 0 0
20130522 340 0 0 0
20120528 200 0 0 0
20110518 200 0 0 0
20100520 200 3000 0 0
20090602 200 0 0 0
20080515 200 0 0 0
20070719 200 0 0 0
20060705 0 3300 0 0
20050622 230 0 0 0
20040525 220 0 0 0
20030530 200 0 0 0
